(set-logic SLHV)
(declare-hvar emp IntHeap)
(declare-locvar nil IntLoc)
(declare-datatype pt_record_0 ((Pt_R_0 (loc IntLoc))))
(declare-datatype pt_record_1 ((Pt_R_1 (data Int))))
(declare-const invalidDeref_2 Bool)
(declare-const loc_2 Int)
(declare-const invalidDeref_1 Bool)
(declare-hvar H_1 IntHeap)
(declare-hvar H_2 IntHeap)
(declare-hvar AH_1 IntHeap)
(declare-hvar AH_2 IntHeap)
(declare-const $r_main0_1 Int)
(declare-const $r_main0_2 Int)
(declare-const $i8_foo0_1 Int)
(declare-const $i8_foo0_2 Int)
(declare-const $i7_main0_1 Int)
(declare-const $i7_main0_2 Int)
(declare-const $i7_foo0_1 Int)
(declare-const $i7_foo0_2 Int)
(declare-const $i6_main0_1 Int)
(declare-const $i6_main0_2 Int)
(declare-const $i6_foo0_1 Int)
(declare-const $i6_foo0_2 Int)
(declare-const $i5_main0_1 Int)
(declare-const $i5_main0_2 Int)
(declare-const $i4_foo0_1 Int)
(declare-const $i4_foo0_2 Int)
(declare-const $i2_main0_1 Int)
(declare-const $i2_main0_2 Int)
(declare-const $i2_foo0_1 Int)
(declare-const $i2_foo0_2 Int)
(declare-const $i1_main0_1 Int)
(declare-const $i1_main0_2 Int)
(declare-const $i1_foo0_1 Int)
(declare-const $i1_foo0_2 Int)
(declare-const $i15_main0_1 Int)
(declare-const $i15_main0_2 Int)
(declare-const $i14_main0_1 Int)
(declare-const $i14_main0_2 Int)
(declare-const $i0_main0_1 Int)
(declare-const $i0_main0_2 Int)
(declare-const $i0_foo0_1 Int)
(declare-const $i0_foo0_2 Int)
(declare-const $M.0_1 Int)
(declare-const $M.0_2 Int)
(declare-locvar $p9_main0_1 IntLoc)
(declare-locvar $p9_main0_2 IntLoc)
(declare-locvar $p8_main0_1 IntLoc)
(declare-locvar $p8_main0_2 IntLoc)
(declare-locvar $p5_foo0_1 IntLoc)
(declare-locvar $p5_foo0_2 IntLoc)
(declare-locvar $p4_main0_1 IntLoc)
(declare-locvar $p4_main0_2 IntLoc)
(declare-locvar $p3_main0_1 IntLoc)
(declare-locvar $p3_main0_2 IntLoc)
(declare-locvar $p3_foo0_1 IntLoc)
(declare-locvar $p3_foo0_2 IntLoc)
(declare-locvar $p24_main0_1 IntLoc)
(declare-locvar $p24_main0_2 IntLoc)
(declare-locvar $p23_main0_1 IntLoc)
(declare-locvar $p23_main0_2 IntLoc)
(declare-locvar $p22_main0_1 IntLoc)
(declare-locvar $p22_main0_2 IntLoc)
(declare-locvar $p21_main0_1 IntLoc)
(declare-locvar $p21_main0_2 IntLoc)
(declare-locvar $p20_main0_1 IntLoc)
(declare-locvar $p20_main0_2 IntLoc)
(declare-locvar $p19_main0_1 IntLoc)
(declare-locvar $p19_main0_2 IntLoc)
(declare-locvar $p18_main0_1 IntLoc)
(declare-locvar $p18_main0_2 IntLoc)
(declare-locvar $p17_main0_1 IntLoc)
(declare-locvar $p17_main0_2 IntLoc)
(declare-locvar $p16_main0_1 IntLoc)
(declare-locvar $p16_main0_2 IntLoc)
(declare-locvar $p13_main0_1 IntLoc)
(declare-locvar $p13_main0_2 IntLoc)
(declare-locvar $p12_main0_1 IntLoc)
(declare-locvar $p12_main0_2 IntLoc)
(declare-locvar $p11_main0_1 IntLoc)
(declare-locvar $p11_main0_2 IntLoc)
(declare-locvar $p10_main0_1 IntLoc)
(declare-locvar $p10_main0_2 IntLoc)
(declare-locvar $M.3_1 IntLoc)
(declare-locvar $M.3_2 IntLoc)
(declare-locvar $M.1_1 IntLoc)
(declare-locvar $M.1_2 IntLoc)
(declare-const loc_1 Int)
(declare-const $i2_foo01_2 Int)
(declare-const $r_main0_0 Int)
(declare-const $i8_foo0_0 Int)
(declare-const $i7_foo0_0 Int)
(declare-const $i6_foo0_0 Int)
(declare-const $i4_foo0_0 Int)
(declare-const $i2_foo0_0 Int)
(declare-const $i15_main0_0 Int)
(declare-const $i14_main0_0 Int)
(declare-locvar $p5_foo0_0 IntLoc)
(declare-locvar $p3_foo0_0 IntLoc)
(declare-locvar $p24_main0_0 IntLoc)
(declare-locvar $p23_main0_0 IntLoc)
(declare-locvar $p22_main0_0 IntLoc)
(declare-locvar $p21_main0_0 IntLoc)
(declare-locvar $p20_main0_0 IntLoc)
(declare-locvar $p19_main0_0 IntLoc)
(declare-locvar $p18_main0_0 IntLoc)
(declare-locvar $p17_main0_0 IntLoc)
(declare-locvar $p16_main0_0 IntLoc)
(declare-locvar $p13_main0_0 IntLoc)
(declare-locvar $p12_main0_0 IntLoc)
(declare-const invalidDeref1_1 Bool)
(declare-hvar H3_1 IntHeap)
(declare-hvar AH2_1 IntHeap)
(declare-locvar $p9_main01_1 IntLoc)
(declare-locvar $p8_main01_1 IntLoc)
(declare-locvar $p4_main01_1 IntLoc)
(declare-locvar $p3_main01_1 IntLoc)
(declare-locvar $p11_main01_1 IntLoc)
(declare-locvar $p10_main01_1 IntLoc)
(declare-const $i7_main01_1 Int)
(declare-const $i6_main01_1 Int)
(declare-const $i5_main01_1 Int)
(declare-const $i2_main01_1 Int)
(declare-const $i1_main01_1 Int)
(declare-const $i1_foo01_1 Int)
(declare-const $i0_main01_1 Int)
(declare-const $i0_foo01_1 Int)
(declare-locvar $M.33_1 IntLoc)
(declare-locvar $M.12_1 IntLoc)
(declare-const $M.02_1 Int)
(declare-const invalidDeref_0 Bool)
(declare-hvar h1_1 IntHeap)
(declare-const d5_1 Int)
(declare-hvar H2_1 IntHeap)
(declare-const d6_1 Int)
(declare-hvar h2 IntHeap)
(declare-locvar $M.32_1 IntLoc)
(declare-locvar l3_1 IntLoc)
(declare-hvar AH1_1 IntHeap)
(declare-locvar l4_1 IntLoc)
(declare-const d4_1 Int)
(declare-const d3_1 Int)
(declare-hvar H1_1 IntHeap)
(declare-locvar l1_1 IntLoc)
(declare-hvar AH_0 IntHeap)
(declare-locvar l2_1 IntLoc)
(declare-const d2_1 Int)
(declare-const d1_1 Int)
(declare-hvar H_0 IntHeap)
(declare-locvar $M.31_1 IntLoc)
(declare-locvar $M.11_1 IntLoc)
(declare-const $M.01_1 Int)
(declare-const loc_0 Int)
(assert
 (let (($x1177 (= loc_2 4)))
 (let (($x1150 (= invalidDeref_2 invalidDeref_1)))
 (let (($x1146 (= H_2 H_1)))
 (let (($x1147 (and (and true (= AH_2 AH_1)) $x1146)))
 (let (($x1139 (= $r_main0_2 $r_main0_1)))
 (let (($x1136 (= $i8_foo0_2 $i8_foo0_1)))
 (let (($x1133 (= $i7_main0_2 $i7_main0_1)))
 (let (($x1130 (= $i7_foo0_2 $i7_foo0_1)))
 (let (($x1127 (= $i6_main0_2 $i6_main0_1)))
 (let (($x1124 (= $i6_foo0_2 $i6_foo0_1)))
 (let (($x1121 (= $i5_main0_2 $i5_main0_1)))
 (let (($x1118 (= $i4_foo0_2 $i4_foo0_1)))
 (let (($x1115 (= $i2_main0_2 $i2_main0_1)))
 (let (($x1162 (= $i2_foo0_2 $i2_foo0_1)))
 (let (($x1112 (= $i1_main0_2 $i1_main0_1)))
 (let (($x1109 (= $i1_foo0_2 $i1_foo0_1)))
 (let (($x1106 (= $i15_main0_2 $i15_main0_1)))
 (let (($x1103 (= $i14_main0_2 $i14_main0_1)))
 (let (($x1100 (= $i0_main0_2 $i0_main0_1)))
 (let (($x1101 (and (and (and true (= $M.0_2 $M.0_1)) (= $i0_foo0_2 $i0_foo0_1)) $x1100)))
 (let (($x1113 (and (and (and (and $x1101 $x1103) $x1106) $x1109) $x1112)))
 (let (($x1168 (and (and (and (and (and (and $x1113 $x1162) $x1115) $x1118) $x1121) $x1124) $x1127)))
 (let (($x1172 (and (and (and (and $x1168 $x1130) $x1133) $x1136) $x1139)))
 (let (($x1090 (= $p9_main0_2 $p9_main0_1)))
 (let (($x1087 (= $p8_main0_2 $p8_main0_1)))
 (let (($x1084 (= $p5_foo0_2 $p5_foo0_1)))
 (let (($x1081 (= $p4_main0_2 $p4_main0_1)))
 (let (($x1078 (= $p3_main0_2 $p3_main0_1)))
 (let (($x1075 (= $p3_foo0_2 $p3_foo0_1)))
 (let (($x1072 (= $p24_main0_2 $p24_main0_1)))
 (let (($x1069 (= $p23_main0_2 $p23_main0_1)))
 (let (($x1066 (= $p22_main0_2 $p22_main0_1)))
 (let (($x1063 (= $p21_main0_2 $p21_main0_1)))
 (let (($x1060 (= $p20_main0_2 $p20_main0_1)))
 (let (($x1057 (= $p19_main0_2 $p19_main0_1)))
 (let (($x1054 (= $p18_main0_2 $p18_main0_1)))
 (let (($x1051 (= $p17_main0_2 $p17_main0_1)))
 (let (($x1048 (= $p16_main0_2 $p16_main0_1)))
 (let (($x1045 (= $p13_main0_2 $p13_main0_1)))
 (let (($x1042 (= $p12_main0_2 $p12_main0_1)))
 (let (($x1039 (= $p11_main0_2 $p11_main0_1)))
 (let (($x1036 (= $p10_main0_2 $p10_main0_1)))
 (let (($x1037 (and (and (and true (= $M.1_2 $M.1_1)) (= $M.3_2 $M.3_1)) $x1036)))
 (let (($x1055 (and (and (and (and (and (and $x1037 $x1039) $x1042) $x1045) $x1048) $x1051) $x1054)))
 (let (($x1073 (and (and (and (and (and (and $x1055 $x1057) $x1060) $x1063) $x1066) $x1069) $x1072)))
 (let (($x1091 (and (and (and (and (and (and $x1073 $x1075) $x1078) $x1081) $x1084) $x1087) $x1090)))
 (let (($x1173 (and (and (and (or true invalidDeref_1) (and true true)) $x1091) $x1172)))
 (let (($x1016 (= loc_1 2)))
 (let (($x1157 (and $x1016 (not (= $i1_foo0_1 1)))))
 (let (($x1153 (= loc_2 3)))
 (let (($x1131 (and (and (and (and (and (and $x1113 $x1115) $x1118) $x1121) $x1124) $x1127) $x1130)))
 (let (($x1140 (and (and (and $x1131 $x1133) $x1136) $x1139)))
 (let (($x1026 (= $i2_foo0_2 $i2_foo01_2)))
 (let (($x1027 (and $x1026 true)))
 (let (($x1141 (and (and (and (or (= $i2_foo01_2 0) invalidDeref_1) $x1027) $x1091) $x1140)))
 (let (($x1021 (= $i1_foo0_1 1)))
 (let (($x1022 (and $x1016 $x1021)))
 (let (($x1180 (and (=> $x1022 (and (and (and $x1141 $x1147) $x1150) $x1153)) (=> $x1157 (and (and (and $x1173 $x1147) $x1150) $x1177)))))
 (let (($x1012 (= $r_main0_1 $r_main0_0)))
 (let (($x1008 (= $i8_foo0_1 $i8_foo0_0)))
 (let (($x1004 (= $i7_foo0_1 $i7_foo0_0)))
 (let (($x1000 (= $i6_foo0_1 $i6_foo0_0)))
 (let (($x996 (= $i4_foo0_1 $i4_foo0_0)))
 (let (($x992 (= $i2_foo0_1 $i2_foo0_0)))
 (let (($x988 (= $i15_main0_1 $i15_main0_0)))
 (let (($x997 (and (and (and (and true (= $i14_main0_1 $i14_main0_0)) $x988) $x992) $x996)))
 (let (($x1013 (and (and (and (and $x997 $x1000) $x1004) $x1008) $x1012)))
 (let (($x979 (= $p5_foo0_1 $p5_foo0_0)))
 (let (($x975 (= $p3_foo0_1 $p3_foo0_0)))
 (let (($x971 (= $p24_main0_1 $p24_main0_0)))
 (let (($x967 (= $p23_main0_1 $p23_main0_0)))
 (let (($x963 (= $p22_main0_1 $p22_main0_0)))
 (let (($x959 (= $p21_main0_1 $p21_main0_0)))
 (let (($x955 (= $p20_main0_1 $p20_main0_0)))
 (let (($x951 (= $p19_main0_1 $p19_main0_0)))
 (let (($x947 (= $p18_main0_1 $p18_main0_0)))
 (let (($x943 (= $p17_main0_1 $p17_main0_0)))
 (let (($x939 (= $p16_main0_1 $p16_main0_0)))
 (let (($x935 (= $p13_main0_1 $p13_main0_0)))
 (let (($x944 (and (and (and (and true (= $p12_main0_1 $p12_main0_0)) $x935) $x939) $x943)))
 (let (($x968 (and (and (and (and (and (and $x944 $x947) $x951) $x955) $x959) $x963) $x967)))
 (let (($x980 (and (and (and $x968 $x971) $x975) $x979)))
 (let (($x926 (= invalidDeref_1 invalidDeref1_1)))
 (let (($x923 (= H_1 H3_1)))
 (let (($x920 (= AH_1 AH2_1)))
 (let (($x917 (= $p9_main0_1 $p9_main01_1)))
 (let (($x914 (= $p8_main0_1 $p8_main01_1)))
 (let (($x911 (= $p4_main0_1 $p4_main01_1)))
 (let (($x908 (= $p3_main0_1 $p3_main01_1)))
 (let (($x905 (= $p11_main0_1 $p11_main01_1)))
 (let (($x902 (= $p10_main0_1 $p10_main01_1)))
 (let (($x899 (= $i7_main0_1 $i7_main01_1)))
 (let (($x896 (= $i6_main0_1 $i6_main01_1)))
 (let (($x893 (= $i5_main0_1 $i5_main01_1)))
 (let (($x890 (= $i2_main0_1 $i2_main01_1)))
 (let (($x887 (= $i1_main0_1 $i1_main01_1)))
 (let (($x884 (= $i1_foo0_1 $i1_foo01_1)))
 (let (($x881 (= $i0_main0_1 $i0_main01_1)))
 (let (($x878 (= $i0_foo0_1 $i0_foo01_1)))
 (let (($x875 (= $M.3_1 $M.33_1)))
 (let (($x879 (and (and (and (= $M.0_1 $M.02_1) (= $M.1_1 $M.12_1)) $x875) $x878)))
 (let (($x897 (and (and (and (and (and (and $x879 $x881) $x884) $x887) $x890) $x893) $x896)))
 (let (($x915 (and (and (and (and (and (and $x897 $x899) $x902) $x905) $x908) $x911) $x914)))
 (let (($x924 (and (and (and $x915 $x917) $x920) $x923)))
 (let (($x755 (or (and (< 0 $i0_foo01_1) (= $i1_foo01_1 1)) (and (not (< 0 $i0_foo01_1)) (= $i1_foo01_1 0)))))
 (let (($x759 (= invalidDeref1_1 invalidDeref_0)))
 (let (($x760 (and invalidDeref_0 $x759)))
 (let (($x763 (= H3_1 (uplus h1_1 (pt $p10_main01_1 (Pt_R_1 0))))))
 (let (($x767 (= H2_1 (uplus h1_1 (pt $p10_main01_1 (Pt_R_1 d5_1))))))
 (let (($x768 (and $x767 $x763)))
 (let (($x770 (= $p10_main01_1 nil)))
 (let (($x774 (= h2 (uplus H2_1 (pt $p10_main01_1 (Pt_R_1 d6_1))))))
 (let (($x792 (= AH2_1 (uplus AH1_1 (pt l3_1 (Pt_R_1 3))))))
 (let (($x793 (= $p8_main01_1 l3_1)))
 (let (($x795 (= l4_1 (locadd l3_1 1))))
 (let ((?x801 (uplus H1_1 (uplus (pt l3_1 (Pt_R_1 d3_1)) (pt l4_1 (Pt_R_1 d4_1))))))
 (let (($x802 (= H2_1 ?x801)))
 (let (($x805 (and (and (and $x802 $x795) $x793) $x792)))
 (let (($x819 (= AH1_1 (uplus AH_0 (pt l1_1 (Pt_R_1 2))))))
 (let (($x820 (= $p3_main01_1 l1_1)))
 (let (($x822 (= l2_1 (locadd l1_1 1))))
 (let ((?x828 (uplus H_0 (uplus (pt l1_1 (Pt_R_1 d1_1)) (pt l2_1 (Pt_R_1 d2_1))))))
 (let (($x829 (= H1_1 ?x828)))
 (let (($x832 (and (and (and $x829 $x822) $x820) $x819)))
 (let (($x848 (and (or (= $M.01_1 0) invalidDeref_0) (or (= $M.11_1 nil) invalidDeref_0))))
 (let (($x850 (and (and $x848 (or (= $M.31_1 nil) invalidDeref_0)) (or (= $M.02_1 2) invalidDeref_0))))
 (let (($x852 (and (and $x850 (or (= $i0_main01_1 $M.02_1) invalidDeref_0)) (or (= $i1_main01_1 2) invalidDeref_0))))
 (let (($x854 (and (and $x852 (or (= $i2_main01_1 8) invalidDeref_0)) (or $x832 invalidDeref_0))))
 (let (($x856 (and (and $x854 (or (= $p4_main01_1 $p3_main01_1) invalidDeref_0)) (or (= $M.12_1 $p3_main01_1) invalidDeref_0))))
 (let (($x858 (and (and $x856 (or (= $i5_main01_1 $M.02_1) invalidDeref_0)) (or (= $i6_main01_1 2) invalidDeref_0))))
 (let (($x860 (and (and $x858 (or (= $i7_main01_1 8) invalidDeref_0)) (or $x805 invalidDeref_0))))
 (let (($x862 (and (and $x860 (or (= $p9_main01_1 $p8_main01_1) invalidDeref_0)) (or (= $M.32_1 $p8_main01_1) invalidDeref_0))))
 (let (($x864 (and (and $x862 (or (= $p10_main01_1 $M.32_1) invalidDeref_0)) (or (= $p11_main01_1 (locadd $p10_main01_1 1)) invalidDeref_0))))
 (let (($x866 (and (and $x864 (or (= $M.33_1 $p11_main01_1) invalidDeref_0)) (or (or (and (or $x774 $x770) invalidDeref1_1) (and $x768 $x759)) $x760))))
 (let (($x868 (and (and $x866 (or (= $i0_foo01_1 $M.02_1) invalidDeref1_1)) (or $x755 invalidDeref1_1))))
 (let (($x705 (= loc_0 1)))
 (let (($x1018 (=> $x705 (and (and (and (and $x868 (and $x924 $x926)) $x980) $x1013) $x1016))))
 (let (($x709 (not invalidDeref_0)))
 (let (($x707 (and (and (= H_0 emp) (= AH_0 emp)) $x705)))
 (and (and (and (and $x707 $x709) $x1018) $x1180) invalidDeref_2)))))))))))))))))))))))))))))))))))))))))))))))))))))))))))))))))))))))))))))))))))))))))))))))))))))))))))))))))))))))))))))))))))))))))))))
(check-sat)
